p cnf 958 2457
51 -2 -691 0
-51 2 0
-51 691 0
52 -51 -3 0
-52 51 0
-52 3 0
53 -692 -4 0
-53 692 0
-53 4 0
54 -53 -6 0
-54 53 0
-54 6 0
55 -693 -694 0
-55 693 0
-55 694 0
56 -8 -695 0
-56 8 0
-56 695 0
57 -56 -696 0
-57 56 0
-57 696 0
58 -697 -55 0
-58 697 0
-58 55 0
59 -11 -10 0
-59 11 0
-59 10 0
60 -59 -12 0
-60 59 0
-60 12 0
61 -698 -58 0
-61 698 0
-61 58 0
62 -13 -691 0
-62 13 0
-62 691 0
63 -62 -699 0
-63 62 0
-63 699 0
64 -700 -61 0
-64 700 0
-64 61 0
65 -16 -15 0
-65 16 0
-65 15 0
66 -65 -701 0
-66 65 0
-66 701 0
67 -702 -64 0
-67 702 0
-67 64 0
68 -703 -704 0
-68 703 0
-68 704 0
69 -68 -20 0
-69 68 0
-69 20 0
70 -705 -67 0
-70 705 0
-70 67 0
71 -706 -692 0
-71 706 0
-71 692 0
72 -71 -707 0
-72 71 0
-72 707 0
73 -708 -70 0
-73 708 0
-73 70 0
74 -709 -710 0
-74 709 0
-74 710 0
75 -74 -699 0
-75 74 0
-75 699 0
76 -711 -73 0
-76 711 0
-76 73 0
77 -712 -1 0
-77 712 0
-77 1 0
78 -77 -25 0
-78 77 0
-78 25 0
79 -713 -76 0
-79 713 0
-79 76 0
80 -714 -26 0
-80 714 0
-80 26 0
81 -80 -715 0
-81 80 0
-81 715 0
82 -716 -79 0
-82 716 0
-82 79 0
83 -27 -7 0
-83 27 0
-83 7 0
84 -83 -717 0
-84 83 0
-84 717 0
85 -718 -82 0
-85 718 0
-85 82 0
86 -719 -692 0
-86 719 0
-86 692 0
87 -86 -701 0
-87 86 0
-87 701 0
88 -720 -85 0
-88 720 0
-88 85 0
89 -721 -722 0
-89 721 0
-89 722 0
90 -89 -723 0
-90 89 0
-90 723 0
91 -724 -88 0
-91 724 0
-91 88 0
92 -34 -725 0
-92 34 0
-92 725 0
93 -92 -726 0
-93 92 0
-93 726 0
94 -727 -91 0
-94 727 0
-94 91 0
95 -29 -13 0
-95 29 0
-95 13 0
96 -95 -723 0
-96 95 0
-96 723 0
97 -728 -94 0
-97 728 0
-97 94 0
98 -729 -36 0
-98 729 0
-98 36 0
99 -98 -38 0
-99 98 0
-99 38 0
100 -730 -97 0
-100 730 0
-100 97 0
101 -39 -722 0
-101 39 0
-101 722 0
102 -101 -20 0
-102 101 0
-102 20 0
103 -731 -100 0
-103 731 0
-103 100 0
104 -11 -695 0
-104 11 0
-104 695 0
105 -104 -3 0
-105 104 0
-105 3 0
106 -732 -103 0
-106 732 0
-106 103 0
107 -733 -29 0
-107 733 0
-107 29 0
108 -107 -34 0
-108 107 0
-108 34 0
109 -734 -106 0
-109 734 0
-109 106 0
110 -735 -11 0
-110 735 0
-110 11 0
111 -110 -736 0
-111 110 0
-111 736 0
112 -737 -109 0
-112 737 0
-112 109 0
113 -738 -736 0
-113 738 0
-113 736 0
114 -113 -729 0
-114 113 0
-114 729 0
115 -739 -112 0
-115 739 0
-115 112 0
116 -10 -7 0
-116 10 0
-116 7 0
117 -116 -13 0
-117 116 0
-117 13 0
118 -740 -115 0
-118 740 0
-118 115 0
119 -42 -733 0
-119 42 0
-119 733 0
120 -119 -43 0
-120 119 0
-120 43 0
121 -741 -118 0
-121 741 0
-121 118 0
122 -18 -722 0
-122 18 0
-122 722 0
123 -122 -742 0
-123 122 0
-123 742 0
124 -743 -121 0
-124 743 0
-124 121 0
125 -729 -29 0
-125 729 0
-125 29 0
126 -125 -6 0
-126 125 0
-126 6 0
127 -744 -124 0
-127 744 0
-127 124 0
128 -42 -722 0
-128 42 0
-128 722 0
129 -128 -706 0
-129 128 0
-129 706 0
130 -745 -127 0
-130 745 0
-130 127 0
131 -14 -6 0
-131 14 0
-131 6 0
132 -131 -3 0
-132 131 0
-132 3 0
133 -746 -130 0
-133 746 0
-133 130 0
134 -37 -9 0
-134 37 0
-134 9 0
135 -134 -43 0
-135 134 0
-135 43 0
136 -747 -133 0
-136 747 0
-136 133 0
137 -35 -30 0
-137 35 0
-137 30 0
138 -137 -3 0
-138 137 0
-138 3 0
139 -748 -136 0
-139 748 0
-139 136 0
140 -39 -749 0
-140 39 0
-140 749 0
141 -140 -22 0
-141 140 0
-141 22 0
142 -750 -139 0
-142 750 0
-142 139 0
143 -751 -8 0
-143 751 0
-143 8 0
144 -143 -752 0
-144 143 0
-144 752 0
145 -753 -142 0
-145 753 0
-145 142 0
146 -717 -10 0
-146 717 0
-146 10 0
147 -146 -14 0
-147 146 0
-147 14 0
148 -754 -145 0
-148 754 0
-148 145 0
149 -30 -703 0
-149 30 0
-149 703 0
150 -149 -43 0
-150 149 0
-150 43 0
151 -755 -148 0
-151 755 0
-151 148 0
152 -714 -756 0
-152 714 0
-152 756 0
153 -152 -757 0
-153 152 0
-153 757 0
154 -758 -151 0
-154 758 0
-154 151 0
155 -46 -759 0
-155 46 0
-155 759 0
156 -155 -30 0
-156 155 0
-156 30 0
157 -760 -154 0
-157 760 0
-157 154 0
158 -761 -10 0
-158 761 0
-158 10 0
159 -158 -699 0
-159 158 0
-159 699 0
160 -762 -157 0
-160 762 0
-160 157 0
161 -48 -13 0
-161 48 0
-161 13 0
162 -161 -17 0
-162 161 0
-162 17 0
163 -763 -160 0
-163 763 0
-163 160 0
164 -761 -5 0
-164 761 0
-164 5 0
165 -164 -43 0
-165 164 0
-165 43 0
166 -764 -163 0
-166 764 0
-166 163 0
167 -25 -12 0
-167 25 0
-167 12 0
168 -167 -723 0
-168 167 0
-168 723 0
169 -765 -166 0
-169 765 0
-169 166 0
170 -761 -692 0
-170 761 0
-170 692 0
171 -170 -48 0
-171 170 0
-171 48 0
172 -766 -169 0
-172 766 0
-172 169 0
173 -35 -703 0
-173 35 0
-173 703 0
174 -173 -707 0
-174 173 0
-174 707 0
175 -767 -172 0
-175 767 0
-175 172 0
176 -36 -701 0
-176 36 0
-176 701 0
177 -176 -6 0
-177 176 0
-177 6 0
178 -768 -175 0
-178 768 0
-178 175 0
179 -749 -722 0
-179 749 0
-179 722 0
180 -179 -769 0
-180 179 0
-180 769 0
181 -770 -178 0
-181 770 0
-181 178 0
182 -733 -771 0
-182 733 0
-182 771 0
183 -182 -22 0
-183 182 0
-183 22 0
184 -772 -181 0
-184 772 0
-184 181 0
185 -773 -24 0
-185 773 0
-185 24 0
186 -185 -6 0
-186 185 0
-186 6 0
187 -774 -184 0
-187 774 0
-187 184 0
188 -773 -704 0
-188 773 0
-188 704 0
189 -188 -41 0
-189 188 0
-189 41 0
190 -775 -187 0
-190 775 0
-190 187 0
191 -776 -4 0
-191 776 0
-191 4 0
192 -191 -6 0
-192 191 0
-192 6 0
193 -777 -190 0
-193 777 0
-193 190 0
194 -773 -714 0
-194 773 0
-194 714 0
195 -194 -14 0
-195 194 0
-195 14 0
196 -778 -193 0
-196 778 0
-196 193 0
197 -779 -13 0
-197 779 0
-197 13 0
198 -197 -715 0
-198 197 0
-198 715 0
199 -780 -196 0
-199 780 0
-199 196 0
200 -49 -1 0
-200 49 0
-200 1 0
201 -200 -709 0
-201 200 0
-201 709 0
202 -781 -199 0
-202 781 0
-202 199 0
203 -782 -712 0
-203 782 0
-203 712 0
204 -203 -30 0
-204 203 0
-204 30 0
205 -783 -202 0
-205 783 0
-205 202 0
206 -735 -699 0
-206 735 0
-206 699 0
207 -206 -38 0
-207 206 0
-207 38 0
208 -784 -205 0
-208 784 0
-208 205 0
209 -785 -703 0
-209 785 0
-209 703 0
210 -209 -752 0
-210 209 0
-210 752 0
211 -786 -208 0
-211 786 0
-211 208 0
212 -776 -769 0
-212 776 0
-212 769 0
213 -212 -14 0
-213 212 0
-213 14 0
214 -787 -211 0
-214 787 0
-214 211 0
215 -43 -788 0
-215 43 0
-215 788 0
216 -215 -789 0
-216 215 0
-216 789 0
217 -790 -214 0
-217 790 0
-217 214 0
218 -16 -4 0
-218 16 0
-218 4 0
219 -218 -719 0
-219 218 0
-219 719 0
220 -791 -217 0
-220 791 0
-220 217 0
221 -792 -11 0
-221 792 0
-221 11 0
222 -221 -701 0
-222 221 0
-222 701 0
223 -793 -220 0
-223 793 0
-223 220 0
224 -37 -699 0
-224 37 0
-224 699 0
225 -224 -17 0
-225 224 0
-225 17 0
226 -794 -223 0
-226 794 0
-226 223 0
227 -14 -4 0
-227 14 0
-227 4 0
228 -227 -6 0
-228 227 0
-228 6 0
229 -795 -226 0
-229 795 0
-229 226 0
230 -715 -17 0
-230 715 0
-230 17 0
231 -230 -6 0
-231 230 0
-231 6 0
232 -796 -229 0
-232 796 0
-232 229 0
233 -756 -24 0
-233 756 0
-233 24 0
234 -233 -788 0
-234 233 0
-234 788 0
235 -797 -232 0
-235 797 0
-235 232 0
236 -749 -771 0
-236 749 0
-236 771 0
237 -236 -42 0
-237 236 0
-237 42 0
238 -798 -235 0
-238 798 0
-238 235 0
239 -77 -696 0
-239 77 0
-239 696 0
240 -799 -238 0
-240 799 0
-240 238 0
241 -776 -17 0
-241 776 0
-241 17 0
242 -241 -800 0
-242 241 0
-242 800 0
243 -801 -240 0
-243 801 0
-243 240 0
244 -725 -15 0
-244 725 0
-244 15 0
245 -244 -751 0
-245 244 0
-245 751 0
246 -802 -243 0
-246 802 0
-246 243 0
247 -33 -722 0
-247 33 0
-247 722 0
248 -247 -742 0
-248 247 0
-248 742 0
249 -803 -246 0
-249 803 0
-249 246 0
250 -26 -704 0
-250 26 0
-250 704 0
251 -250 -41 0
-251 250 0
-251 41 0
252 -804 -249 0
-252 804 0
-252 249 0
253 -37 -13 0
-253 37 0
-253 13 0
254 -253 -32 0
-254 253 0
-254 32 0
255 -805 -252 0
-255 805 0
-255 252 0
256 -752 -10 0
-256 752 0
-256 10 0
257 -256 -32 0
-257 256 0
-257 32 0
258 -806 -255 0
-258 806 0
-258 255 0
259 -49 -21 0
-259 49 0
-259 21 0
260 -259 -729 0
-260 259 0
-260 729 0
261 -807 -258 0
-261 807 0
-261 258 0
262 -704 -5 0
-262 704 0
-262 5 0
263 -262 -726 0
-263 262 0
-263 726 0
264 -808 -261 0
-264 808 0
-264 261 0
265 -699 -10 0
-265 699 0
-265 10 0
266 -265 -701 0
-266 265 0
-266 701 0
267 -809 -264 0
-267 809 0
-267 264 0
268 -26 -722 0
-268 26 0
-268 722 0
269 -268 -3 0
-269 268 0
-269 3 0
270 -810 -267 0
-270 810 0
-270 267 0
271 -726 -6 0
-271 726 0
-271 6 0
272 -271 -22 0
-272 271 0
-272 22 0
273 -811 -270 0
-273 811 0
-273 270 0
274 -24 -692 0
-274 24 0
-274 692 0
275 -274 -752 0
-275 274 0
-275 752 0
276 -812 -273 0
-276 812 0
-276 273 0
277 -710 -1 0
-277 710 0
-277 1 0
278 -277 -719 0
-278 277 0
-278 719 0
279 -813 -276 0
-279 813 0
-279 276 0
280 -756 -771 0
-280 756 0
-280 771 0
281 -280 -719 0
-281 280 0
-281 719 0
282 -814 -279 0
-282 814 0
-282 279 0
283 -46 -738 0
-283 46 0
-283 738 0
284 -283 -44 0
-284 283 0
-284 44 0
285 -815 -282 0
-285 815 0
-285 282 0
286 -785 -692 0
-286 785 0
-286 692 0
287 -286 -31 0
-287 286 0
-287 31 0
288 -816 -285 0
-288 816 0
-288 285 0
289 -773 -817 0
-289 773 0
-289 817 0
290 -289 -21 0
-290 289 0
-290 21 0
291 -818 -288 0
-291 818 0
-291 288 0
292 -23 -819 0
-292 23 0
-292 819 0
293 -292 -2 0
-293 292 0
-293 2 0
294 -820 -291 0
-294 820 0
-294 291 0
295 -34 -714 0
-295 34 0
-295 714 0
296 -295 -30 0
-296 295 0
-296 30 0
297 -821 -294 0
-297 821 0
-297 294 0
298 -714 -16 0
-298 714 0
-298 16 0
299 -298 -6 0
-299 298 0
-299 6 0
300 -822 -297 0
-300 822 0
-300 297 0
301 -735 -7 0
-301 735 0
-301 7 0
302 -301 -729 0
-302 301 0
-302 729 0
303 -823 -300 0
-303 823 0
-303 300 0
304 -107 -19 0
-304 107 0
-304 19 0
305 -824 -303 0
-305 824 0
-305 303 0
306 -709 -779 0
-306 709 0
-306 779 0
307 -306 -706 0
-307 306 0
-307 706 0
308 -825 -305 0
-308 825 0
-308 305 0
309 -20 -7 0
-309 20 0
-309 7 0
310 -309 -17 0
-310 309 0
-310 17 0
311 -826 -308 0
-311 826 0
-311 308 0
312 -50 -27 0
-312 50 0
-312 27 0
313 -312 -722 0
-313 312 0
-313 722 0
314 -827 -311 0
-314 827 0
-314 311 0
315 -725 -12 0
-315 725 0
-315 12 0
316 -315 -43 0
-316 315 0
-316 43 0
317 -828 -314 0
-317 828 0
-317 314 0
318 -35 -717 0
-318 35 0
-318 717 0
319 -318 -19 0
-319 318 0
-319 19 0
320 -829 -317 0
-320 829 0
-320 317 0
321 -776 -695 0
-321 776 0
-321 695 0
322 -321 -701 0
-322 321 0
-322 701 0
323 -830 -320 0
-323 830 0
-323 320 0
324 -782 -717 0
-324 782 0
-324 717 0
325 -324 -726 0
-325 324 0
-325 726 0
326 -831 -323 0
-326 831 0
-326 323 0
327 -792 -725 0
-327 792 0
-327 725 0
328 -327 -701 0
-328 327 0
-328 701 0
329 -832 -326 0
-329 832 0
-329 326 0
330 -49 -24 0
-330 49 0
-330 24 0
331 -330 -22 0
-331 330 0
-331 22 0
332 -833 -329 0
-332 833 0
-332 329 0
333 -8 -1 0
-333 8 0
-333 1 0
334 -333 -722 0
-334 333 0
-334 722 0
335 -834 -332 0
-335 834 0
-335 332 0
336 -42 -704 0
-336 42 0
-336 704 0
337 -336 -25 0
-337 336 0
-337 25 0
338 -835 -335 0
-338 835 0
-338 335 0
339 -29 -699 0
-339 29 0
-339 699 0
340 -339 -31 0
-340 339 0
-340 31 0
341 -836 -338 0
-341 836 0
-341 338 0
342 -321 -742 0
-342 321 0
-342 742 0
343 -837 -341 0
-343 837 0
-343 341 0
344 -722 -691 0
-344 722 0
-344 691 0
345 -344 -21 0
-345 344 0
-345 21 0
346 -838 -343 0
-346 838 0
-346 343 0
347 -28 -703 0
-347 28 0
-347 703 0
348 -347 -12 0
-348 347 0
-348 12 0
349 -839 -346 0
-349 839 0
-349 346 0
350 -33 -817 0
-350 33 0
-350 817 0
351 -350 -30 0
-351 350 0
-351 30 0
352 -840 -349 0
-352 840 0
-352 349 0
353 -717 -4 0
-353 717 0
-353 4 0
354 -353 -13 0
-354 353 0
-354 13 0
355 -841 -352 0
-355 841 0
-355 352 0
356 -773 -11 0
-356 773 0
-356 11 0
357 -356 -28 0
-357 356 0
-357 28 0
358 -842 -355 0
-358 842 0
-358 355 0
359 -41 -749 0
-359 41 0
-359 749 0
360 -359 -817 0
-360 359 0
-360 817 0
361 -843 -358 0
-361 843 0
-361 358 0
362 -40 -24 0
-362 40 0
-362 24 0
363 -362 -707 0
-363 362 0
-363 707 0
364 -844 -361 0
-364 844 0
-364 361 0
365 -725 -16 0
-365 725 0
-365 16 0
366 -365 -47 0
-366 365 0
-366 47 0
367 -845 -364 0
-367 845 0
-367 364 0
368 -715 -11 0
-368 715 0
-368 11 0
369 -368 -800 0
-369 368 0
-369 800 0
370 -846 -367 0
-370 846 0
-370 367 0
371 -736 -15 0
-371 736 0
-371 15 0
372 -371 -21 0
-372 371 0
-372 21 0
373 -847 -370 0
-373 847 0
-373 370 0
374 -776 -785 0
-374 776 0
-374 785 0
375 -374 -729 0
-375 374 0
-375 729 0
376 -848 -373 0
-376 848 0
-376 373 0
377 -733 -5 0
-377 733 0
-377 5 0
378 -377 -717 0
-378 377 0
-378 717 0
379 -849 -376 0
-379 849 0
-379 376 0
380 -49 -733 0
-380 49 0
-380 733 0
381 -380 -31 0
-381 380 0
-381 31 0
382 -850 -379 0
-382 850 0
-382 379 0
383 -49 -756 0
-383 49 0
-383 756 0
384 -383 -715 0
-384 383 0
-384 715 0
385 -851 -382 0
-385 851 0
-385 382 0
386 -761 -696 0
-386 761 0
-386 696 0
387 -386 -719 0
-387 386 0
-387 719 0
388 -852 -385 0
-388 852 0
-388 385 0
389 -42 -2 0
-389 42 0
-389 2 0
390 -389 -22 0
-390 389 0
-390 22 0
391 -853 -388 0
-391 853 0
-391 388 0
392 -785 -26 0
-392 785 0
-392 26 0
393 -392 -30 0
-393 392 0
-393 30 0
394 -854 -391 0
-394 854 0
-394 391 0
395 -701 -4 0
-395 701 0
-395 4 0
396 -395 -22 0
-396 395 0
-396 22 0
397 -855 -394 0
-397 855 0
-397 394 0
398 -45 -10 0
-398 45 0
-398 10 0
399 -398 -37 0
-399 398 0
-399 37 0
400 -856 -397 0
-400 856 0
-400 397 0
401 -36 -13 0
-401 36 0
-401 13 0
402 -401 -28 0
-402 401 0
-402 28 0
403 -857 -400 0
-403 857 0
-403 400 0
404 -735 -712 0
-404 735 0
-404 712 0
405 -404 -729 0
-405 404 0
-405 729 0
406 -858 -403 0
-406 858 0
-406 403 0
407 -374 -757 0
-407 374 0
-407 757 0
408 -859 -406 0
-408 859 0
-408 406 0
409 -29 -714 0
-409 29 0
-409 714 0
410 -409 -723 0
-410 409 0
-410 723 0
411 -860 -408 0
-411 860 0
-411 408 0
412 -7 -691 0
-412 7 0
-412 691 0
413 -412 -37 0
-413 412 0
-413 37 0
414 -861 -411 0
-414 861 0
-414 411 0
415 -29 -704 0
-415 29 0
-415 704 0
416 -415 -6 0
-416 415 0
-416 6 0
417 -862 -414 0
-417 862 0
-417 414 0
418 -863 -752 0
-418 863 0
-418 752 0
419 -418 -864 0
-419 418 0
-419 864 0
420 -865 -417 0
-420 865 0
-420 417 0
421 -819 -2 0
-421 819 0
-421 2 0
422 -421 -721 0
-422 421 0
-422 721 0
423 -866 -420 0
-423 866 0
-423 420 0
424 -736 -710 0
-424 736 0
-424 710 0
425 -424 -701 0
-425 424 0
-425 701 0
426 -867 -423 0
-426 867 0
-426 423 0
427 -738 -692 0
-427 738 0
-427 692 0
428 -427 -47 0
-428 427 0
-428 47 0
429 -868 -426 0
-429 868 0
-429 426 0
430 -40 -819 0
-430 40 0
-430 819 0
431 -430 -789 0
-431 430 0
-431 789 0
432 -869 -429 0
-432 869 0
-432 429 0
433 -39 -725 0
-433 39 0
-433 725 0
434 -433 -721 0
-434 433 0
-434 721 0
435 -870 -432 0
-435 870 0
-435 432 0
436 -182 -37 0
-436 182 0
-436 37 0
437 -871 -435 0
-437 871 0
-437 435 0
438 -782 -695 0
-438 782 0
-438 695 0
439 -438 -725 0
-439 438 0
-439 725 0
440 -872 -437 0
-440 872 0
-440 437 0
441 -45 -33 0
-441 45 0
-441 33 0
442 -441 -48 0
-442 441 0
-442 48 0
443 -873 -440 0
-443 873 0
-443 440 0
444 -21 -9 0
-444 21 0
-444 9 0
445 -444 -17 0
-445 444 0
-445 17 0
446 -874 -443 0
-446 874 0
-446 443 0
447 -757 -4 0
-447 757 0
-447 4 0
448 -447 -37 0
-448 447 0
-448 37 0
449 -875 -446 0
-449 875 0
-449 446 0
450 -733 -18 0
-450 733 0
-450 18 0
451 -450 -723 0
-451 450 0
-451 723 0
452 -876 -449 0
-452 876 0
-452 449 0
453 -47 -692 0
-453 47 0
-453 692 0
454 -453 -45 0
-454 453 0
-454 45 0
455 -877 -452 0
-455 877 0
-455 452 0
456 -38 -16 0
-456 38 0
-456 16 0
457 -456 -701 0
-457 456 0
-457 701 0
458 -878 -455 0
-458 878 0
-458 455 0
459 -773 -16 0
-459 773 0
-459 16 0
460 -459 -751 0
-460 459 0
-460 751 0
461 -879 -458 0
-461 879 0
-461 458 0
462 -34 -7 0
-462 34 0
-462 7 0
463 -462 -17 0
-463 462 0
-463 17 0
464 -880 -461 0
-464 880 0
-464 461 0
465 -776 -28 0
-465 776 0
-465 28 0
466 -465 -789 0
-466 465 0
-466 789 0
467 -881 -464 0
-467 881 0
-467 464 0
468 -27 -4 0
-468 27 0
-468 4 0
469 -468 -699 0
-469 468 0
-469 699 0
470 -882 -467 0
-470 882 0
-470 467 0
471 -703 -692 0
-471 703 0
-471 692 0
472 -471 -769 0
-472 471 0
-472 769 0
473 -883 -470 0
-473 883 0
-473 470 0
474 -28 -704 0
-474 28 0
-474 704 0
475 -474 -701 0
-475 474 0
-475 701 0
476 -884 -473 0
-476 884 0
-476 473 0
477 -761 -28 0
-477 761 0
-477 28 0
478 -477 -736 0
-478 477 0
-478 736 0
479 -885 -476 0
-479 885 0
-479 476 0
480 -863 -1 0
-480 863 0
-480 1 0
481 -480 -30 0
-481 480 0
-481 30 0
482 -886 -479 0
-482 886 0
-482 479 0
483 -27 -691 0
-483 27 0
-483 691 0
484 -483 -703 0
-484 483 0
-484 703 0
485 -887 -482 0
-485 887 0
-485 482 0
486 -29 -2 0
-486 29 0
-486 2 0
487 -486 -742 0
-487 486 0
-487 742 0
488 -888 -485 0
-488 888 0
-488 485 0
489 -703 -779 0
-489 703 0
-489 779 0
490 -489 -12 0
-490 489 0
-490 12 0
491 -889 -488 0
-491 889 0
-491 488 0
492 -107 -699 0
-492 107 0
-492 699 0
493 -890 -491 0
-493 890 0
-493 491 0
494 -39 -21 0
-494 39 0
-494 21 0
495 -494 -723 0
-495 494 0
-495 723 0
496 -891 -493 0
-496 891 0
-496 493 0
497 -785 -35 0
-497 785 0
-497 35 0
498 -497 -6 0
-498 497 0
-498 6 0
499 -892 -496 0
-499 892 0
-499 496 0
500 -41 -28 0
-500 41 0
-500 28 0
501 -500 -21 0
-501 500 0
-501 21 0
502 -893 -499 0
-502 893 0
-502 499 0
503 -706 -779 0
-503 706 0
-503 779 0
504 -503 -710 0
-504 503 0
-504 710 0
505 -894 -502 0
-505 894 0
-505 502 0
506 -782 -771 0
-506 782 0
-506 771 0
507 -506 -5 0
-507 506 0
-507 5 0
508 -895 -505 0
-508 895 0
-508 505 0
509 -761 -41 0
-509 761 0
-509 41 0
510 -509 -32 0
-510 509 0
-510 32 0
511 -896 -508 0
-511 896 0
-511 508 0
512 -729 -704 0
-512 729 0
-512 704 0
513 -512 -31 0
-513 512 0
-513 31 0
514 -897 -511 0
-514 897 0
-514 511 0
515 -39 -817 0
-515 39 0
-515 817 0
516 -515 -710 0
-516 515 0
-516 710 0
517 -898 -514 0
-517 898 0
-517 514 0
518 -36 -5 0
-518 36 0
-518 5 0
519 -518 -8 0
-519 518 0
-519 8 0
520 -899 -517 0
-520 899 0
-520 517 0
521 -39 -38 0
-521 39 0
-521 38 0
522 -521 -701 0
-522 521 0
-522 701 0
523 -900 -520 0
-523 900 0
-523 520 0
524 -27 -707 0
-524 27 0
-524 707 0
525 -524 -44 0
-525 524 0
-525 44 0
526 -901 -523 0
-526 901 0
-526 523 0
527 -751 -749 0
-527 751 0
-527 749 0
528 -527 -44 0
-528 527 0
-528 44 0
529 -902 -526 0
-529 902 0
-529 526 0
530 -35 -33 0
-530 35 0
-530 33 0
531 -530 -800 0
-531 530 0
-531 800 0
532 -903 -529 0
-532 903 0
-532 529 0
533 -43 -759 0
-533 43 0
-533 759 0
534 -533 -742 0
-534 533 0
-534 742 0
535 -904 -532 0
-535 904 0
-535 532 0
536 -722 -5 0
-536 722 0
-536 5 0
537 -536 -706 0
-537 536 0
-537 706 0
538 -905 -535 0
-538 905 0
-538 535 0
539 -19 -704 0
-539 19 0
-539 704 0
540 -539 -699 0
-540 539 0
-540 699 0
541 -906 -538 0
-541 906 0
-541 538 0
542 -706 -771 0
-542 706 0
-542 771 0
543 -542 -800 0
-543 542 0
-543 800 0
544 -907 -541 0
-544 907 0
-544 541 0
545 -757 -715 0
-545 757 0
-545 715 0
546 -545 -17 0
-546 545 0
-546 17 0
547 -908 -544 0
-547 908 0
-547 544 0
548 -29 -736 0
-548 29 0
-548 736 0
549 -548 -43 0
-549 548 0
-549 43 0
550 -909 -547 0
-550 909 0
-550 547 0
551 -699 -1 0
-551 699 0
-551 1 0
552 -551 -789 0
-552 551 0
-552 789 0
553 -910 -550 0
-553 910 0
-553 550 0
554 -719 -789 0
-554 719 0
-554 789 0
555 -554 -723 0
-555 554 0
-555 723 0
556 -911 -553 0
-556 911 0
-556 553 0
557 -27 -15 0
-557 27 0
-557 15 0
558 -557 -738 0
-558 557 0
-558 738 0
559 -912 -556 0
-559 912 0
-559 556 0
560 -191 -742 0
-560 191 0
-560 742 0
561 -913 -559 0
-561 913 0
-561 559 0
562 -863 -757 0
-562 863 0
-562 757 0
563 -562 -6 0
-563 562 0
-563 6 0
564 -914 -561 0
-564 914 0
-564 561 0
565 -38 -709 0
-565 38 0
-565 709 0
566 -565 -723 0
-566 565 0
-566 723 0
567 -915 -564 0
-567 915 0
-567 564 0
568 -782 -38 0
-568 782 0
-568 38 0
569 -568 -707 0
-569 568 0
-569 707 0
570 -916 -567 0
-570 916 0
-570 567 0
571 -761 -42 0
-571 761 0
-571 42 0
572 -571 -735 0
-572 571 0
-572 735 0
573 -917 -570 0
-573 917 0
-573 570 0
574 -726 -712 0
-574 726 0
-574 712 0
575 -574 -39 0
-575 574 0
-575 39 0
576 -918 -573 0
-576 918 0
-576 573 0
577 -722 -9 0
-577 722 0
-577 9 0
578 -577 -759 0
-578 577 0
-578 759 0
579 -919 -576 0
-579 919 0
-579 576 0
580 -50 -757 0
-580 50 0
-580 757 0
581 -580 -25 0
-581 580 0
-581 25 0
582 -920 -579 0
-582 920 0
-582 579 0
583 -715 -819 0
-583 715 0
-583 819 0
584 -583 -706 0
-584 583 0
-584 706 0
585 -921 -582 0
-585 921 0
-585 582 0
586 -110 -759 0
-586 110 0
-586 759 0
587 -922 -585 0
-587 922 0
-587 585 0
588 -47 -13 0
-588 47 0
-588 13 0
589 -588 -757 0
-589 588 0
-589 757 0
590 -923 -587 0
-590 923 0
-590 587 0
591 -209 -742 0
-591 209 0
-591 742 0
592 -924 -590 0
-592 924 0
-592 590 0
593 -776 -2 0
-593 776 0
-593 2 0
594 -593 -3 0
-594 593 0
-594 3 0
595 -925 -592 0
-595 925 0
-595 592 0
596 -756 -13 0
-596 756 0
-596 13 0
597 -596 -23 0
-597 596 0
-597 23 0
598 -926 -595 0
-598 926 0
-598 595 0
599 -785 -7 0
-599 785 0
-599 7 0
600 -599 -20 0
-600 599 0
-600 20 0
601 -927 -598 0
-601 927 0
-601 598 0
602 -35 -12 0
-602 35 0
-602 12 0
603 -602 -863 0
-603 602 0
-603 863 0
604 -928 -601 0
-604 928 0
-604 601 0
605 -785 -18 0
-605 785 0
-605 18 0
606 -605 -21 0
-606 605 0
-606 21 0
607 -929 -604 0
-607 929 0
-607 604 0
608 -289 -3 0
-608 289 0
-608 3 0
609 -930 -607 0
-609 930 0
-609 607 0
610 -863 -692 0
-610 863 0
-610 692 0
611 -610 -30 0
-611 610 0
-611 30 0
612 -931 -609 0
-612 931 0
-612 609 0
613 -792 -714 0
-613 792 0
-613 714 0
614 -613 -722 0
-614 613 0
-614 722 0
615 -932 -612 0
-615 932 0
-615 612 0
616 -863 -17 0
-616 863 0
-616 17 0
617 -616 -6 0
-617 616 0
-617 6 0
618 -933 -615 0
-618 933 0
-618 615 0
619 -800 -692 0
-619 800 0
-619 692 0
620 -619 -789 0
-620 619 0
-620 789 0
621 -934 -618 0
-621 934 0
-621 618 0
622 -733 -7 0
-622 733 0
-622 7 0
623 -622 -29 0
-623 622 0
-623 29 0
624 -935 -621 0
-624 935 0
-624 621 0
625 -792 -695 0
-625 792 0
-625 695 0
626 -625 -20 0
-626 625 0
-626 20 0
627 -936 -624 0
-627 936 0
-627 624 0
628 -9 -7 0
-628 9 0
-628 7 0
629 -628 -12 0
-629 628 0
-629 12 0
630 -937 -627 0
-630 937 0
-630 627 0
631 -14 -710 0
-631 14 0
-631 710 0
632 -631 -17 0
-632 631 0
-632 17 0
633 -938 -630 0
-633 938 0
-633 630 0
634 -34 -691 0
-634 34 0
-634 691 0
635 -634 -39 0
-635 634 0
-635 39 0
636 -939 -633 0
-636 939 0
-636 633 0
637 -30 -25 0
-637 30 0
-637 25 0
638 -637 -22 0
-638 637 0
-638 22 0
639 -940 -636 0
-639 940 0
-639 636 0
640 -785 -691 0
-640 785 0
-640 691 0
641 -640 -707 0
-641 640 0
-641 707 0
642 -941 -639 0
-642 941 0
-642 639 0
643 -726 -4 0
-643 726 0
-643 4 0
644 -643 -12 0
-644 643 0
-644 12 0
645 -942 -642 0
-645 942 0
-645 642 0
646 -757 -10 0
-646 757 0
-646 10 0
647 -646 -715 0
-647 646 0
-647 715 0
648 -943 -645 0
-648 943 0
-648 645 0
649 -13 -695 0
-649 13 0
-649 695 0
650 -649 -22 0
-650 649 0
-650 22 0
651 -944 -648 0
-651 944 0
-651 648 0
652 -250 -757 0
-652 250 0
-652 757 0
653 -945 -651 0
-653 945 0
-653 651 0
654 -380 -757 0
-654 380 0
-654 757 0
655 -946 -653 0
-655 946 0
-655 653 0
656 -715 -23 0
-656 715 0
-656 23 0
657 -656 -863 0
-657 656 0
-657 863 0
658 -947 -655 0
-658 947 0
-658 655 0
659 -38 -707 0
-659 38 0
-659 707 0
660 -659 -723 0
-660 659 0
-660 723 0
661 -948 -658 0
-661 948 0
-661 658 0
662 -735 -706 0
-662 735 0
-662 706 0
663 -662 -699 0
-663 662 0
-663 699 0
664 -949 -661 0
-664 949 0
-664 661 0
665 -714 -9 0
-665 714 0
-665 9 0
666 -665 -789 0
-666 665 0
-666 789 0
667 -950 -664 0
-667 950 0
-667 664 0
668 -20 -722 0
-668 20 0
-668 722 0
669 -668 -721 0
-669 668 0
-669 721 0
670 -951 -667 0
-670 951 0
-670 667 0
671 -863 -738 0
-671 863 0
-671 738 0
672 -671 -752 0
-672 671 0
-672 752 0
673 -952 -670 0
-673 952 0
-673 670 0
674 -773 -785 0
-674 773 0
-674 785 0
675 -674 -22 0
-675 674 0
-675 22 0
676 -953 -673 0
-676 953 0
-676 673 0
677 -733 -1 0
-677 733 0
-677 1 0
678 -677 -49 0
-678 677 0
-678 49 0
679 -954 -676 0
-679 954 0
-679 676 0
680 -733 -725 0
-680 733 0
-680 725 0
681 -680 -6 0
-681 680 0
-681 6 0
682 -955 -679 0
-682 955 0
-682 679 0
683 -298 -30 0
-683 298 0
-683 30 0
684 -956 -682 0
-684 956 0
-684 682 0
685 -776 -704 0
-685 776 0
-685 704 0
686 -685 -28 0
-686 685 0
-686 28 0
687 -957 -684 0
-687 957 0
-687 684 0
688 -42 -785 0
-688 42 0
-688 785 0
689 -688 -49 0
-689 688 0
-689 49 0
690 -958 -687 0
-690 958 0
-690 687 0
-691 -1 0
691 1 0
-692 -5 0
692 5 0
-693 -54 0
693 54 0
-694 -52 0
694 52 0
-695 -7 0
695 7 0
-696 -9 0
696 9 0
-697 -57 0
697 57 0
-698 -60 0
698 60 0
-699 -14 0
699 14 0
-700 -63 0
700 63 0
-701 -17 0
701 17 0
-702 -66 0
702 66 0
-703 -19 0
703 19 0
-704 -18 0
704 18 0
-705 -69 0
705 69 0
-706 -21 0
706 21 0
-707 -22 0
707 22 0
-708 -72 0
708 72 0
-709 -23 0
709 23 0
-710 -2 0
710 2 0
-711 -75 0
711 75 0
-712 -24 0
712 24 0
-713 -78 0
713 78 0
-714 -27 0
714 27 0
-715 -28 0
715 28 0
-716 -81 0
716 81 0
-717 -29 0
717 29 0
-718 -84 0
718 84 0
-719 -30 0
719 30 0
-720 -87 0
720 87 0
-721 -31 0
721 31 0
-722 -13 0
722 13 0
-723 -32 0
723 32 0
-724 -90 0
724 90 0
-725 -33 0
725 33 0
-726 -35 0
726 35 0
-727 -93 0
727 93 0
-728 -96 0
728 96 0
-729 -37 0
729 37 0
-730 -99 0
730 99 0
-731 -102 0
731 102 0
-732 -105 0
732 105 0
-733 -40 0
733 40 0
-734 -108 0
734 108 0
-735 -39 0
735 39 0
-736 -20 0
736 20 0
-737 -111 0
737 111 0
-738 -41 0
738 41 0
-739 -114 0
739 114 0
-740 -117 0
740 117 0
-741 -120 0
741 120 0
-742 -44 0
742 44 0
-743 -123 0
743 123 0
-744 -126 0
744 126 0
-745 -129 0
745 129 0
-746 -132 0
746 132 0
-747 -135 0
747 135 0
-748 -138 0
748 138 0
-749 -16 0
749 16 0
-750 -141 0
750 141 0
-751 -34 0
751 34 0
-752 -38 0
752 38 0
-753 -144 0
753 144 0
-754 -147 0
754 147 0
-755 -150 0
755 150 0
-756 -26 0
756 26 0
-757 -45 0
757 45 0
-758 -153 0
758 153 0
-759 -12 0
759 12 0
-760 -156 0
760 156 0
-761 -47 0
761 47 0
-762 -159 0
762 159 0
-763 -162 0
763 162 0
-764 -165 0
764 165 0
-765 -168 0
765 168 0
-766 -171 0
766 171 0
-767 -174 0
767 174 0
-768 -177 0
768 177 0
-769 -25 0
769 25 0
-770 -180 0
770 180 0
-771 -10 0
771 10 0
-772 -183 0
772 183 0
-773 -46 0
773 46 0
-774 -186 0
774 186 0
-775 -189 0
775 189 0
-776 -42 0
776 42 0
-777 -192 0
777 192 0
-778 -195 0
778 195 0
-779 -15 0
779 15 0
-780 -198 0
780 198 0
-781 -201 0
781 201 0
-782 -50 0
782 50 0
-783 -204 0
783 204 0
-784 -207 0
784 207 0
-785 -36 0
785 36 0
-786 -210 0
786 210 0
-787 -213 0
787 213 0
-788 -4 0
788 4 0
-789 -6 0
789 6 0
-790 -216 0
790 216 0
-791 -219 0
791 219 0
-792 -49 0
792 49 0
-793 -222 0
793 222 0
-794 -225 0
794 225 0
-795 -228 0
795 228 0
-796 -231 0
796 231 0
-797 -234 0
797 234 0
-798 -237 0
798 237 0
-799 -239 0
799 239 0
-800 -43 0
800 43 0
-801 -242 0
801 242 0
-802 -245 0
802 245 0
-803 -248 0
803 248 0
-804 -251 0
804 251 0
-805 -254 0
805 254 0
-806 -257 0
806 257 0
-807 -260 0
807 260 0
-808 -263 0
808 263 0
-809 -266 0
809 266 0
-810 -269 0
810 269 0
-811 -272 0
811 272 0
-812 -275 0
812 275 0
-813 -278 0
813 278 0
-814 -281 0
814 281 0
-815 -284 0
815 284 0
-816 -287 0
816 287 0
-817 -11 0
817 11 0
-818 -290 0
818 290 0
-819 -8 0
819 8 0
-820 -293 0
820 293 0
-821 -296 0
821 296 0
-822 -299 0
822 299 0
-823 -302 0
823 302 0
-824 -304 0
824 304 0
-825 -307 0
825 307 0
-826 -310 0
826 310 0
-827 -313 0
827 313 0
-828 -316 0
828 316 0
-829 -319 0
829 319 0
-830 -322 0
830 322 0
-831 -325 0
831 325 0
-832 -328 0
832 328 0
-833 -331 0
833 331 0
-834 -334 0
834 334 0
-835 -337 0
835 337 0
-836 -340 0
836 340 0
-837 -342 0
837 342 0
-838 -345 0
838 345 0
-839 -348 0
839 348 0
-840 -351 0
840 351 0
-841 -354 0
841 354 0
-842 -357 0
842 357 0
-843 -360 0
843 360 0
-844 -363 0
844 363 0
-845 -366 0
845 366 0
-846 -369 0
846 369 0
-847 -372 0
847 372 0
-848 -375 0
848 375 0
-849 -378 0
849 378 0
-850 -381 0
850 381 0
-851 -384 0
851 384 0
-852 -387 0
852 387 0
-853 -390 0
853 390 0
-854 -393 0
854 393 0
-855 -396 0
855 396 0
-856 -399 0
856 399 0
-857 -402 0
857 402 0
-858 -405 0
858 405 0
-859 -407 0
859 407 0
-860 -410 0
860 410 0
-861 -413 0
861 413 0
-862 -416 0
862 416 0
-863 -48 0
863 48 0
-864 -3 0
864 3 0
-865 -419 0
865 419 0
-866 -422 0
866 422 0
-867 -425 0
867 425 0
-868 -428 0
868 428 0
-869 -431 0
869 431 0
-870 -434 0
870 434 0
-871 -436 0
871 436 0
-872 -439 0
872 439 0
-873 -442 0
873 442 0
-874 -445 0
874 445 0
-875 -448 0
875 448 0
-876 -451 0
876 451 0
-877 -454 0
877 454 0
-878 -457 0
878 457 0
-879 -460 0
879 460 0
-880 -463 0
880 463 0
-881 -466 0
881 466 0
-882 -469 0
882 469 0
-883 -472 0
883 472 0
-884 -475 0
884 475 0
-885 -478 0
885 478 0
-886 -481 0
886 481 0
-887 -484 0
887 484 0
-888 -487 0
888 487 0
-889 -490 0
889 490 0
-890 -492 0
890 492 0
-891 -495 0
891 495 0
-892 -498 0
892 498 0
-893 -501 0
893 501 0
-894 -504 0
894 504 0
-895 -507 0
895 507 0
-896 -510 0
896 510 0
-897 -513 0
897 513 0
-898 -516 0
898 516 0
-899 -519 0
899 519 0
-900 -522 0
900 522 0
-901 -525 0
901 525 0
-902 -528 0
902 528 0
-903 -531 0
903 531 0
-904 -534 0
904 534 0
-905 -537 0
905 537 0
-906 -540 0
906 540 0
-907 -543 0
907 543 0
-908 -546 0
908 546 0
-909 -549 0
909 549 0
-910 -552 0
910 552 0
-911 -555 0
911 555 0
-912 -558 0
912 558 0
-913 -560 0
913 560 0
-914 -563 0
914 563 0
-915 -566 0
915 566 0
-916 -569 0
916 569 0
-917 -572 0
917 572 0
-918 -575 0
918 575 0
-919 -578 0
919 578 0
-920 -581 0
920 581 0
-921 -584 0
921 584 0
-922 -586 0
922 586 0
-923 -589 0
923 589 0
-924 -591 0
924 591 0
-925 -594 0
925 594 0
-926 -597 0
926 597 0
-927 -600 0
927 600 0
-928 -603 0
928 603 0
-929 -606 0
929 606 0
-930 -608 0
930 608 0
-931 -611 0
931 611 0
-932 -614 0
932 614 0
-933 -617 0
933 617 0
-934 -620 0
934 620 0
-935 -623 0
935 623 0
-936 -626 0
936 626 0
-937 -629 0
937 629 0
-938 -632 0
938 632 0
-939 -635 0
939 635 0
-940 -638 0
940 638 0
-941 -641 0
941 641 0
-942 -644 0
942 644 0
-943 -647 0
943 647 0
-944 -650 0
944 650 0
-945 -652 0
945 652 0
-946 -654 0
946 654 0
-947 -657 0
947 657 0
-948 -660 0
948 660 0
-949 -663 0
949 663 0
-950 -666 0
950 666 0
-951 -669 0
951 669 0
-952 -672 0
952 672 0
-953 -675 0
953 675 0
-954 -678 0
954 678 0
-955 -681 0
955 681 0
-956 -683 0
956 683 0
-957 -686 0
957 686 0
-958 -689 0
958 689 0
690 0
